p tw 100 13501 2 
1 3 
1 4 
1 5 
1 6 
1 7 
1 8 
1 9 
1 10 
1 11 
1 16 
1 21 
1 24 
1 31 
1 37 
1 41 
1 50 
1 51 
1 58 
1 61 
1 62 
1 71 
1 75 
1 81 
1 89 
1 91 
1 93 
2 3 
2 4 
2 5 
2 6 
2 7 
2 8 
2 9 
2 10 
2 12 
2 20 
2 22 
2 23 
2 32 
2 38 
2 41 
2 42 
2 52 
2 56 
2 62 
2 65 
2 72 
2 74 
2 82 
2 87 
2 92 
2 99 
3 4 
3 5 
3 6 
3 7 
3 8 
3 9 
3 10 
3 11 
3 13 
3 23 
3 29 
3 32 
3 33 
3 43 
3 48 
3 53 
3 60 
3 63 
3 66 
3 73 
3 77 
3 83 
3 85 
3 93 
3 94 
4 5 
4 6 
4 7 
4 8 
4 9 
4 10 
4 14 
4 18 
4 24 
4 26 
4 33 
4 34 
4 44 
4 47 
4 54 
4 55 
4 64 
4 70 
4 74 
4 79 
4 81 
4 84 
4 92 
4 94 
5 6 
5 7 
5 8 
5 9 
5 10 
5 14 
5 15 
5 25 
5 30 
5 31 
5 35 
5 45 
5 49 
5 52 
5 55 
5 65 
5 67 
5 73 
5 75 
5 85 
5 86 
5 95 
5 98 
6 7 
6 8 
6 9 
6 10 
6 15 
6 16 
6 21 
6 26 
6 34 
6 36 
6 42 
6 46 
6 56 
6 59 
6 66 
6 68 
6 76 
6 80 
6 83 
6 86 
6 96 
6 97 
7 8 
7 9 
7 10 
7 13 
7 17 
7 25 
7 27 
7 37 
7 39 
7 46 
7 47 
7 51 
7 57 
7 64 
7 67 
7 77 
7 78 
7 82 
7 87 
7 97 
7 100 
8 9 
8 10 
8 12 
8 18 
8 27 
8 28 
8 35 
8 38 
8 44 
8 48 
8 53 
8 58 
8 68 
8 69 
8 71 
8 78 
8 88 
8 90 
8 96 
8 98 
9 10 
9 17 
9 19 
9 22 
9 29 
9 39 
9 40 
9 43 
9 49 
9 54 
9 59 
9 61 
9 69 
9 76 
9 79 
9 88 
9 89 
9 95 
9 99 
10 19 
10 20 
10 28 
10 30 
10 36 
10 40 
10 45 
10 50 
10 57 
10 60 
10 63 
10 70 
10 72 
10 80 
10 84 
10 90 
10 91 
10 100 
11 12 
11 13 
11 14 
11 15 
11 16 
11 17 
11 18 
11 19 
11 20 
11 21 
11 29 
11 31 
11 32 
11 41 
11 48 
11 51 
11 60 
11 61 
11 66 
11 71 
11 77 
11 81 
11 85 
11 91 
11 94 
12 13 
12 14 
12 15 
12 16 
12 17 
12 18 
12 19 
12 20 
12 22 
12 27 
12 32 
12 35 
12 42 
12 44 
12 52 
12 53 
12 62 
12 69 
12 71 
12 72 
12 82 
12 90 
12 92 
12 96 
13 14 
13 15 
13 16 
13 17 
13 18 
13 19 
13 20 
13 23 
13 25 
13 33 
13 39 
13 43 
13 46 
13 51 
13 53 
13 63 
13 64 
13 73 
13 78 
13 82 
13 83 
13 93 
13 100 
14 15 
14 16 
14 17 
14 18 
14 19 
14 20 
14 24 
14 30 
14 31 
14 34 
14 44 
14 49 
14 52 
14 54 
14 64 
14 67 
14 73 
14 74 
14 84 
14 86 
14 94 
14 98 
15 16 
15 17 
15 18 
15 19 
15 20 
15 21 
15 25 
15 34 
15 35 
15 42 
15 45 
15 55 
15 59 
15 65 
15 68 
15 75 
15 80 
15 83 
15 85 
15 95 
15 97 
16 17 
16 18 
16 19 
16 20 
16 24 
16 26 
16 36 
16 37 
16 46 
16 50 
16 56 
16 58 
16 62 
16 66 
16 75 
16 76 
16 86 
16 89 
16 93 
16 96 
17 18 
17 19 
17 20 
17 22 
17 27 
17 37 
17 40 
17 43 
17 47 
17 54 
17 57 
17 61 
17 67 
17 76 
17 77 
17 87 
17 88 
17 95 
17 97 
18 19 
18 20 
18 26 
18 28 
18 33 
18 38 
18 47 
18 48 
18 55 
18 58 
18 68 
18 70 
18 78 
18 79 
18 81 
18 88 
18 92 
18 98 
19 20 
19 28 
19 29 
19 36 
19 39 
19 45 
19 49 
19 57 
19 59 
19 63 
19 69 
19 72 
19 79 
19 84 
19 89 
19 91 
19 99 
20 23 
20 30 
20 38 
20 40 
20 41 
20 50 
20 56 
20 60 
20 65 
20 70 
20 74 
20 80 
20 87 
20 90 
20 99 
20 100 
21 22 
21 23 
21 24 
21 25 
21 26 
21 27 
21 28 
21 29 
21 30 
21 31 
21 34 
21 41 
21 42 
21 51 
21 59 
21 61 
21 68 
21 71 
21 80 
21 81 
21 83 
21 91 
21 97 
22 23 
22 24 
22 25 
22 26 
22 27 
22 28 
22 29 
22 30 
22 32 
22 40 
22 42 
22 43 
22 52 
22 54 
22 61 
22 62 
22 72 
22 76 
22 82 
22 88 
22 92 
22 95 
23 24 
23 25 
23 26 
23 27 
23 28 
23 29 
23 30 
23 33 
23 38 
23 41 
23 43 
23 53 
23 56 
23 63 
23 65 
23 73 
23 74 
23 83 
23 87 
23 93 
23 99 
24 25 
24 26 
24 27 
24 28 
24 29 
24 30 
24 34 
24 37 
24 44 
24 50 
24 54 
24 58 
24 62 
24 64 
24 74 
24 75 
24 84 
24 89 
24 93 
24 94 
25 26 
25 27 
25 28 
25 29 
25 30 
25 35 
25 39 
25 45 
25 46 
25 51 
25 55 
25 64 
25 65 
25 75 
25 78 
25 82 
25 85 
25 95 
25 100 
26 27 
26 28 
26 29 
26 30 
26 33 
26 36 
26 46 
26 47 
26 55 
26 56 
26 66 
26 70 
26 76 
26 79 
26 81 
26 86 
26 92 
26 96 
27 28 
27 29 
27 30 
27 35 
27 37 
27 44 
27 47 
27 53 
27 57 
27 67 
27 69 
27 71 
27 77 
27 87 
27 90 
27 96 
27 97 
28 29 
28 30 
28 36 
28 38 
28 45 
28 48 
28 57 
28 58 
28 63 
28 68 
28 72 
28 78 
28 84 
28 88 
28 91 
28 98 
29 30 
29 32 
29 39 
29 48 
29 49 
29 59 
29 60 
29 66 
29 69 
29 77 
29 79 
29 85 
29 89 
29 94 
29 99 
30 31 
30 40 
30 49 
30 50 
30 52 
30 60 
30 67 
30 70 
30 73 
30 80 
30 86 
30 90 
30 98 
30 100 
31 32 
31 33 
31 34 
31 35 
31 36 
31 37 
31 38 
31 39 
31 40 
31 41 
31 49 
31 51 
31 52 
31 61 
31 67 
31 71 
31 73 
31 81 
31 86 
31 91 
31 98 
32 33 
32 34 
32 35 
32 36 
32 37 
32 38 
32 39 
32 40 
32 42 
32 48 
32 52 
32 60 
32 62 
32 66 
32 72 
32 77 
32 82 
32 85 
32 92 
32 94 
33 34 
33 35 
33 36 
33 37 
33 38 
33 39 
33 40 
33 43 
33 47 
33 53 
33 55 
33 63 
33 70 
33 73 
33 79 
33 81 
33 83 
33 92 
33 93 
34 35 
34 36 
34 37 
34 38 
34 39 
34 40 
34 42 
34 44 
34 54 
34 59 
34 64 
34 68 
34 74 
34 80 
34 83 
34 84 
34 94 
34 97 
35 36 
35 37 
35 38 
35 39 
35 40 
35 44 
35 45 
35 53 
35 55 
35 65 
35 69 
35 71 
35 75 
35 85 
35 90 
35 95 
35 96 
36 37 
36 38 
36 39 
36 40 
36 45 
36 46 
36 56 
36 57 
36 63 
36 66 
36 72 
36 76 
36 84 
36 86 
36 91 
36 96 
37 38 
37 39 
37 40 
37 47 
37 50 
37 57 
37 58 
37 62 
37 67 
37 75 
37 77 
37 87 
37 89 
37 93 
37 97 
38 39 
38 40 
38 41 
38 48 
38 56 
38 58 
38 65 
38 68 
38 74 
38 78 
38 87 
38 88 
38 98 
38 99 
39 40 
39 46 
39 49 
39 51 
39 59 
39 64 
39 69 
39 78 
39 79 
39 82 
39 89 
39 99 
39 100 
40 43 
40 50 
40 54 
40 60 
40 61 
40 70 
40 76 
40 80 
40 88 
40 90 
40 95 
40 100 
41 42 
41 43 
41 44 
41 45 
41 46 
41 47 
41 48 
41 49 
41 50 
41 51 
41 56 
41 61 
41 65 
41 71 
41 74 
41 81 
41 87 
41 91 
41 99 
42 43 
42 44 
42 45 
42 46 
42 47 
42 48 
42 49 
42 50 
42 52 
42 59 
42 62 
42 68 
42 72 
42 80 
42 82 
42 83 
42 92 
42 97 
43 44 
43 45 
43 46 
43 47 
43 48 
43 49 
43 50 
43 53 
43 54 
43 61 
43 63 
43 73 
43 76 
43 83 
43 88 
43 93 
43 95 
44 45 
44 46 
44 47 
44 48 
44 49 
44 50 
44 53 
44 54 
44 64 
44 69 
44 71 
44 74 
44 84 
44 90 
44 94 
44 96 
45 46 
45 47 
45 48 
45 49 
45 50 
45 55 
45 57 
45 63 
45 65 
45 72 
45 75 
45 84 
45 85 
45 91 
45 95 
46 47 
46 48 
46 49 
46 50 
46 51 
46 56 
46 64 
46 66 
46 76 
46 78 
46 82 
46 86 
46 96 
46 100 
47 48 
47 49 
47 50 
47 55 
47 57 
47 67 
47 70 
47 77 
47 79 
47 81 
47 87 
47 92 
47 97 
48 49 
48 50 
48 58 
48 60 
48 66 
48 68 
48 77 
48 78 
48 85 
48 88 
48 94 
48 98 
49 50 
49 52 
49 59 
49 67 
49 69 
49 73 
49 79 
49 86 
49 89 
49 98 
49 99 
50 58 
50 60 
50 62 
50 70 
50 75 
50 80 
50 89 
50 90 
50 93 
50 100 
51 52 
51 53 
51 54 
51 55 
51 56 
51 57 
51 58 
51 59 
51 60 
51 61 
51 64 
51 71 
51 78 
51 81 
51 82 
51 91 
51 100 
52 53 
52 54 
52 55 
52 56 
52 57 
52 58 
52 59 
52 60 
52 62 
52 67 
52 72 
52 73 
52 82 
52 86 
52 92 
52 98 
53 54 
53 55 
53 56 
53 57 
53 58 
53 59 
53 60 
53 63 
53 69 
53 71 
53 73 
53 83 
53 90 
53 93 
53 96 
54 55 
54 56 
54 57 
54 58 
54 59 
54 60 
54 61 
54 64 
54 74 
54 76 
54 84 
54 88 
54 94 
54 95 
55 56 
55 57 
55 58 
55 59 
55 60 
55 65 
55 70 
55 75 
55 79 
55 81 
55 85 
55 92 
55 95 
56 57 
56 58 
56 59 
56 60 
56 65 
56 66 
56 74 
56 76 
56 86 
56 87 
56 96 
56 99 
57 58 
57 59 
57 60 
57 63 
57 67 
57 72 
57 77 
57 84 
57 87 
57 91 
57 97 
58 59 
58 60 
58 62 
58 68 
58 75 
58 78 
58 88 
58 89 
58 93 
58 98 
59 60 
59 68 
59 69 
59 79 
59 80 
59 83 
59 89 
59 97 
59 99 
60 66 
60 70 
60 77 
60 80 
60 85 
60 90 
60 94 
60 100 
61 62 
61 63 
61 64 
61 65 
61 66 
61 67 
61 68 
61 69 
61 70 
61 71 
61 76 
61 81 
61 88 
61 91 
61 95 
62 63 
62 64 
62 65 
62 66 
62 67 
62 68 
62 69 
62 70 
62 72 
62 75 
62 82 
62 89 
62 92 
62 93 
63 64 
63 65 
63 66 
63 67 
63 68 
63 69 
63 70 
63 72 
63 73 
63 83 
63 84 
63 91 
63 93 
64 65 
64 66 
64 67 
64 68 
64 69 
64 70 
64 74 
64 78 
64 82 
64 84 
64 94 
64 100 
65 66 
65 67 
65 68 
65 69 
65 70 
65 74 
65 75 
65 85 
65 87 
65 95 
65 99 
66 67 
66 68 
66 69 
66 70 
66 76 
66 77 
66 85 
66 86 
66 94 
66 96 
67 68 
67 69 
67 70 
67 73 
67 77 
67 86 
67 87 
67 97 
67 98 
68 69 
68 70 
68 78 
68 80 
68 83 
68 88 
68 97 
68 98 
69 70 
69 71 
69 79 
69 89 
69 90 
69 96 
69 99 
70 79 
70 80 
70 81 
70 90 
70 92 
70 100 
71 72 
71 73 
71 74 
71 75 
71 76 
71 77 
71 78 
71 79 
71 80 
71 81 
71 90 
71 91 
71 96 
72 73 
72 74 
72 75 
72 76 
72 77 
72 78 
72 79 
72 80 
72 82 
72 84 
72 91 
72 92 
73 74 
73 75 
73 76 
73 77 
73 78 
73 79 
73 80 
73 83 
73 86 
73 93 
73 98 
74 75 
74 76 
74 77 
74 78 
74 79 
74 80 
74 84 
74 87 
74 94 
74 99 
75 76 
75 77 
75 78 
75 79 
75 80 
75 85 
75 89 
75 93 
75 95 
76 77 
76 78 
76 79 
76 80 
76 86 
76 88 
76 95 
76 96 
77 78 
77 79 
77 80 
77 85 
77 87 
77 94 
77 97 
78 79 
78 80 
78 82 
78 88 
78 98 
78 100 
79 80 
79 81 
79 89 
79 92 
79 99 
80 83 
80 90 
80 97 
80 100 
81 82 
81 83 
81 84 
81 85 
81 86 
81 87 
81 88 
81 89 
81 90 
81 91 
81 92 
82 83 
82 84 
82 85 
82 86 
82 87 
82 88 
82 89 
82 90 
82 92 
82 100 
83 84 
83 85 
83 86 
83 87 
83 88 
83 89 
83 90 
83 93 
83 97 
84 85 
84 86 
84 87 
84 88 
84 89 
84 90 
84 91 
84 94 
85 86 
85 87 
85 88 
85 89 
85 90 
85 94 
85 95 
86 87 
86 88 
86 89 
86 90 
86 96 
86 98 
87 88 
87 89 
87 90 
87 97 
87 99 
88 89 
88 90 
88 95 
88 98 
89 90 
89 93 
89 99 
90 96 
90 100 
91 92 
91 93 
91 94 
91 95 
91 96 
91 97 
91 98 
91 99 
91 100 
92 93 
92 94 
92 95 
92 96 
92 97 
92 98 
92 99 
92 100 
93 94 
93 95 
93 96 
93 97 
93 98 
93 99 
93 100 
94 95 
94 96 
94 97 
94 98 
94 99 
94 100 
95 96 
95 97 
95 98 
95 99 
95 100 
96 97 
96 98 
96 99 
96 100 
97 98 
97 99 
97 100 
98 99 
98 100 
99 100 
